(set-logic QF_S)
(declare-fun var0 () String)
(declare-fun var1 () String)
(declare-fun var2 () String)
(declare-fun var3 () Int)
(declare-fun var4 () Int)
(declare-fun var5 () Int)
(declare-fun var6 () Bool)
(declare-fun var7 () Bool)
(declare-fun var8 () Bool)
(assert (not var8))
(assert (str.contains (str.replace var0 var1 "?k<xYvP""]B") (str.at var0 6)))
(assert (str.prefixof (str.at var1 var5) (str.at var0 var3)))
(assert (< (str.len "/sB/6VaE%W") (str.indexof var0 var2 10)))
(check-sat)